\ LP format - for model browsing. Use MPS format to capture full model detail.
Minimize
  10 h + 6 d
Subject To
 R0: - 0.1 h - 0.1 d >= -4
 R1: h + d <= 150
 R2: d >= 10
 R3: - 0.3 h + 0.7 d <= 0
Bounds
Generals
 h d
End
